50
    1   284   274
    2   457   447
    3    81    71
    4   493   483
    5    71    61
    6   435   425
    7   168   158
    8   119   109
    9    45    35
   10    24    14
   11   302   292
   12   508   498
   13    70    60
   14    44    34
   15   380   370
   16   314   304
   17    94    84
   18   505   495
   19   399   389
   20   253   243
   21    16     6
   22   410   400
   23   476   466
   24    42    32
   25   429   419
   26   122   112
   27   149   139
   28    45    35
   29   393   383
   30   346   336
   31    37    27
   32   319   309
   33   406   396
   34   245   235
   35   421   411
   36   109    99
   37   138   128
   38   437   427
   39   443   433
   40   476   466
   41   186   176
   42   464   454
   43   264   254
   44   290   280
   45   289   279
   46   187   177
   47    99    89
   48   339   329
   49   417   407
   50   380   370
6460
